Maximize

20 dSta_0 + 16 d0_2 + 14 d2_3 + 2 d2_16 + 15 d3_4 + 5 d3_5 + 5 d4_5 + 15 d4_4 + 1 d5_6 + 2 d5_7 + 2 d6_7 + 2 d7_8 + 5 d7_10 + 1 d8_9 + 5 d8_10 + 5 d9_10 + 3 d10_11 + 2 d10_12 + 3 d11_15 + 1 d12_13 + 1 d12_14 + 1 d13_14 + 3 d14_15 + 2 d15_16 + 14 d15_3 + 4 d16_1


Subject to


\ === tcfg constraints ===
dSta_0 = 1
b0 - d0_2 = 0
b0 - dSta_0 = 0
b1 - d16_1 = 0
b2 - d2_3 - d2_16 = 0
b2 - d0_2 = 0
b3 - d3_4 - d3_5 = 0
b3 - d2_3 - d15_3 = 0
b4 - d4_5 - d4_4 = 0
b4 - d3_4 - d4_4 = 0
b5 - d5_6 - d5_7 = 0
b5 - d3_5 - d4_5 = 0
b6 - d6_7 = 0
b6 - d5_6 = 0
b7 - d7_8 - d7_10 = 0
b7 - d5_7 - d6_7 = 0
b8 - d8_9 - d8_10 = 0
b8 - d7_8 = 0
b9 - d9_10 = 0
b9 - d8_9 = 0
b10 - d10_11 - d10_12 = 0
b10 - d7_10 - d8_10 - d9_10 = 0
b11 - d11_15 = 0
b11 - d10_11 = 0
b12 - d12_13 - d12_14 = 0
b12 - d10_12 = 0
b13 - d13_14 = 0
b13 - d12_13 = 0
b14 - d14_15 = 0
b14 - d12_14 - d13_14 = 0
b15 - d15_16 - d15_3 = 0
b15 - d11_15 - d14_15 = 0
b16 - d16_1 = 0
b16 - d2_16 - d15_16 = 0


\ === infeasible path constraints ===

b0 = 1
b1 = 1
b2 = 1
b3 = 700
b5 = 700
b7 = 700
b10 = 700
b15 = 700
b16 = 1
b4 = 10

Generals

Sta
b0
d0_2
b1
b2
d2_3
d2_16
b3
d3_4
d3_5
b4
d4_5
d4_4
b5
d5_6
d5_7
b6
d6_7
b7
d7_8
d7_10
b8
d8_9
d8_10
b9
d9_10
b10
d10_11
d10_12
b11
d11_15
b12
d12_13
d12_14
b13
d13_14
b14
d14_15
b15
d15_16
d15_3
b16
d16_1

End
\ total_cons: 44 	total_vars: 43
